16 32
1 2 4
1 5 3
2 3 1
2 6 4
3 4 4
3 7 5
4 8 1
5 6 1
5 9 1
6 7 4
6 10 3
7 8 4
7 11 1
8 12 5
9 10 3
9 13 1
10 11 5
10 14 4
11 12 2
11 15 5
12 16 4
13 14 5
14 15 4
15 16 2
1 13 3
2 14 1
3 15 1
4 16 4
1 4 3
5 8 4
9 12 4
13 16 2
